4
Lattice="3.521107066838378 -2.0162657e-09 9.889083e-10 -1.9581864e-09 3.625203746218461 2.2204145e-08 9.888773e-10 2.28619988e-08 3.5211077603179106" Properties=species:S:1:pos:R:3:initial_magmoms:R:1:forces:R:3:energies:R:1 energy=-28.225174679432268 stress="0.035483966780757915 -5.99493356593455e-10 3.428457615417959e-10 -5.99493356593455e-10 0.050139493593276054 6.797622729158603e-09 3.428457615417959e-10 6.797622729158603e-09 0.03548404077678233" free_energy=-28.225174679432268 pbc="T T T"
Co      -0.00000000      -0.00000000       0.00000000       3.00000000      -0.00000000      -0.00000000       0.00000000      -7.05629367
Co      -0.00000000       1.81260188       1.76055389       3.00000000      -0.00000000       0.00000000      -0.00000000      -7.05629367
Co       1.76055353       0.00000001       1.76055388       3.00000000       0.00000000      -0.00000000      -0.00000000      -7.05629367
Co       1.76055353       1.81260187       0.00000001       3.00000000       0.00000000       0.00000000       0.00000000      -7.05629367
