#===============================================================================
# Created using the Atomic Simulation Environment (ASE)

# Wed Sep 17 14:21:16 2025

#=======================================================
lattice_vector 2.9769195487953652 0.0000000000000000 0.0000000000000002 
lattice_vector 1.4884597743976820 2.5780879542792952 0.0000000000000002 
lattice_vector 0.0000000000000000 0.0000000000000000 57.0145124330182682 
atom 3.2903979008897477 0.6783758404596173 20.0000000000000036 Mg
atom 1.8019381264920635 1.5377384918860473 22.4306446332883276 Mg
atom 3.2903979008897459 2.3971011433124780 24.8612892665766516 Mg
atom 3.2903979008897482 0.6783758404596124 27.2919338998649756 Mg
atom 1.8019381264920680 1.5377384918860462 29.7225785331532961 Mg
atom 3.2903979008897477 2.3971011433124794 32.1532231664416202 Mg
atom 3.2903979008897486 0.6783758404596183 34.5838677997299371 Mg
atom 1.8019381264920618 1.5377384918860448 37.0145124330182682 Mg
atom 3.2903979008897464 2.3971011433124803 21.2153223166441549 O
atom 3.2903979008897486 0.6783758404596151 23.6459669499324789 O
atom 1.8019381264920644 1.5377384918860468 26.0766115832208136 O
atom 3.2903979008897495 2.3971011433124803 28.5072562165091306 O
atom 3.2903979008897495 0.6783758404596134 30.9379008497974475 O
atom 1.8019381264920664 1.5377384918860473 33.3685454830857680 O
atom 3.2903979008897446 2.3971011433124785 35.7991901163740991 O
