4
Lattice="3.521107066799211 -1.9579787e-09 9.889083e-10 0.0704221809791452 3.5204048546009385 2.2204145e-08 1.432988e-09 2.22010947e-08 3.5211077603179106" Properties=species:S:1:pos:R:3:initial_magmoms:R:1:forces:R:3:energies:R:1 energy=-28.253939802762837 stress="-0.0007653490381640398 0.013051112682434085 6.586094001211819e-10 0.013051112682434085 -0.001287180363581014 8.235922258413159e-09 6.586094001211819e-10 8.235922258413159e-09 -0.00044330842651363366" free_energy=-28.253939802762837 pbc="T T T"
Co      -0.00000000      -0.00000000       0.00000000       3.00000000      -0.00000000      -0.00000000       0.00000000      -7.06348495
Co       0.03521109       1.76020244       1.76055389       3.00000000      -0.00000000       0.00000000       0.00000000      -7.06348495
Co       1.76055353       0.00000001       1.76055388       3.00000000       0.00000000      -0.00000000      -0.00000000      -7.06348495
Co       1.79576462       1.76020243       0.00000001       3.00000000       0.00000000       0.00000000      -0.00000000      -7.06348495
