4
Lattice="3.521107066838378 -1.9778571e-09 9.889083e-10 -1.9581864e-09 3.556145921729094 2.2204145e-08 9.888773e-10 2.24264923e-08 3.5211077603179106" Properties=species:S:1:pos:R:3:initial_magmoms:R:1:forces:R:3:energies:R:1 energy=-28.25541209329755 stress="0.013849807839160953 -6.817176655942131e-10 3.5857995042047964e-10 -6.817176655942131e-10 0.01908901817598283 7.729961090510627e-09 3.5857995042047964e-10 7.729961090510627e-09 0.01384990222612857" free_energy=-28.25541209329755 pbc="T T T"
Co      -0.00000000      -0.00000000       0.00000000       3.00000000      -0.00000000      -0.00000000      -0.00000000      -7.06385302
Co      -0.00000000       1.77807297       1.76055389       3.00000000      -0.00000000       0.00000000      -0.00000000      -7.06385302
Co       1.76055353       0.00000001       1.76055388       3.00000000       0.00000000      -0.00000000       0.00000000      -7.06385302
Co       1.76055353       1.77807296       0.00000001       3.00000000       0.00000000       0.00000000       0.00000000      -7.06385302
