4
Lattice="3.6252016046983533 -1.9583704e-09 9.889083e-10 -2.0160763e-09 3.521109146866583 2.2204145e-08 1.0181115e-09 2.22055362e-08 3.5211077603179106" Properties=species:S:1:pos:R:3:initial_magmoms:R:1:forces:R:3:energies:R:1 energy=-28.225175068543336 stress="0.050139215651259526 -5.994924904039884e-10 3.0273299925160485e-10 -5.994924904039884e-10 0.03548427462352261 7.698323303457556e-09 3.0273299925160485e-10 7.698323303457556e-09 0.035484126674160385" free_energy=-28.225175068543336 pbc="T T T"
Co      -0.00000000      -0.00000000       0.00000000       3.00000000      -0.00000000      -0.00000000       0.00000000      -7.05629377
Co      -0.00000000       1.76055458       1.76055389       3.00000000      -0.00000000       0.00000000      -0.00000000      -7.05629377
Co       1.81260080       0.00000001       1.76055388       3.00000000       0.00000000      -0.00000000      -0.00000000      -7.05629377
Co       1.81260080       1.76055457       0.00000001       3.00000000       0.00000000       0.00000000       0.00000000      -7.05629377
