#===============================================================================
# Created using the Atomic Simulation Environment (ASE)

# Wed Sep 24 10:07:14 2025

#=======================================================
lattice_vector 2.9769195487953652 0.0000000000000000 0.0000000000000002 
lattice_vector 1.4884597743976820 2.5780879542792952 0.0000000000000002 
lattice_vector 0.0000000000000000 0.0000000000000000 57.0145124330182682 
atom 3.2903979008897477 0.6783758404596173 21.2153223166441691 Mg
atom 1.8019381264920635 1.5377384918860473 23.6459669499324932 Mg
atom 3.2903979008897459 2.3971011433124780 26.0766115832208207 Mg
atom 3.2903979008897482 0.6783758404596124 28.5072562165091412 Mg
atom 1.8019381264920680 1.5377384918860462 30.9379008497974652 Mg
atom 3.2903979008897477 2.3971011433124794 33.3685454830857893 Mg
atom 3.2903979008897486 0.6783758404596183 35.7991901163741062 Mg
atom 1.8019381264920629 1.5377384918860468 20.0000000000000036 O
atom 3.2903979008897464 2.3971011433124803 22.4306446332883276 O
atom 3.2903979008897486 0.6783758404596151 24.8612892665766445 O
atom 1.8019381264920644 1.5377384918860468 27.2919338998649827 O
atom 3.2903979008897495 2.3971011433124803 29.7225785331533032 O
atom 3.2903979008897495 0.6783758404596134 32.1532231664416130 O
atom 1.8019381264920664 1.5377384918860473 34.5838677997299371 O
atom 3.2903979008897446 2.3971011433124785 37.0145124330182682 O
