4
Lattice="3.521107066720876 -1.9548421e-09 9.889083e-10 0.2112665468538086 3.5147654359146907 2.2204145e-08 2.3212095e-09 2.21655302e-08 3.5211077603179106" Properties=species:S:1:pos:R:3:initial_magmoms:R:1:forces:R:3:energies:R:1 energy=-28.207973531320143 stress="-0.007079844012416162 0.03905596253108052 1.2069722375779952e-09 0.03905596253108052 -0.01177469406550957 8.242928427845083e-09 1.2069722375779952e-09 8.242928427845083e-09 -0.004107287180320522" free_energy=-28.207973531320143 pbc="T T T"
Co      -0.00000000      -0.00000000       0.00000000       3.00000000      -0.00000000      -0.00000000       0.00000000      -7.05199338
Co       0.10563327       1.75738273       1.76055389       3.00000000      -0.00000000       0.00000000      -0.00000000      -7.05199338
Co       1.76055353       0.00000001       1.76055388       3.00000000       0.00000000       0.00000000      -0.00000000      -7.05199338
Co       1.86618681       1.75738272       0.00000001       3.00000000       0.00000000      -0.00000000       0.00000000      -7.05199338
